Set parameter TSPort to value 51199
Set parameter TokenServer to value "open-license1.lanl.gov"
Set parameter TimeLimit to value 8192
Set parameter Threads to value 1
Gurobi Optimizer version 10.0.3 build v10.0.3rc0 (linux64)

CPU model: Intel(R) Xeon(R) CPU E5-2695 v4 @ 2.10GHz, instruction set [SSE2|AVX|AVX2]
Thread count: 36 physical cores, 72 logical processors, using up to 1 threads

Optimize a model with 0 rows, 4046 columns and 0 nonzeros
Model fingerprint: 0xf2058bd1
Model has 18850 quadratic objective terms
Variable types: 0 continuous, 4046 integer (4046 binary)
Coefficient statistics:
  Matrix range     [0e+00, 0e+00]
  Objective range  [2e+00, 3e+01]
  QObjective range [8e+00, 8e+00]
  Bounds range     [1e+00, 1e+00]
  RHS range        [0e+00, 0e+00]
Found heuristic solution: objective 0.0000000
Found heuristic solution: objective -6938.000000
Found heuristic solution: objective -25284.00000
Found heuristic solution: objective -25376.00000
Presolve removed 0 rows and 3 columns
Presolve time: 0.52s
Presolved: 18847 rows, 22890 columns, 56541 nonzeros
Variable types: 0 continuous, 22890 integer (22890 binary)

Root relaxation: objective -3.548700e+04, 5611 iterations, 0.08 seconds (0.04 work units)

    Nodes    |    Current Node    |     Objective Bounds      |     Work
 Expl Unexpl |  Obj  Depth IntInf | Incumbent    BestBd   Gap | It/Node Time

     0     0 -35487.000    0 4043 -25376.000 -35487.000  39.8%     -    1s
     0     0 -33523.000    0 4940 -25376.000 -33523.000  32.1%     -    1s
     0     0 -32914.500    0 5328 -25376.000 -32914.500  29.7%     -    2s
     0     0 -32899.000    0 5344 -25376.000 -32899.000  29.6%     -    2s
     0     0 -32439.167    0 5656 -25376.000 -32439.167  27.8%     -    3s
     0     0 -32439.167    0 5563 -25376.000 -32439.167  27.8%     -    4s
     0     2 -32439.167    0 5555 -25376.000 -32439.167  27.8%     -    5s
   144   146 -31746.000   72 6159 -25376.000 -32427.167  27.8%   132   10s
   332   334 -30909.500  166 6758 -25376.000 -32427.167  27.8%   110   15s
   513   515 -30144.000  257 7267 -25376.000 -32427.167  27.8%  99.0   20s
   686   688 -29478.000  343 7670 -25376.000 -32427.167  27.8%  93.0   25s
   837   839 -28923.167  419 7868 -25376.000 -32427.167  27.8%  90.2   30s
   909   911 -28659.667  455 7921 -25376.000 -32427.167  27.8%  88.0   39s
   910   912 -28663.667  455 7931 -25376.000 -32427.167  27.8%  88.0   41s
  1042  1044 -28244.500  521 8039 -25376.000 -32427.167  27.8%  84.7   45s
H 1222  1222                    -25378.00000 -32427.167  27.8%  81.5   49s
  1264  1266 -27536.500  633 8206 -25378.000 -32427.167  27.8%  80.7   50s
H 1378  1378                    -25382.00000 -32427.167  27.8%  79.0   52s
H 1404  1404                    -25384.00000 -32427.167  27.7%  78.6   53s
H 1430  1430                    -25392.00000 -32427.167  27.7%  78.2   53s
H 1482  1482                    -25398.00000 -32427.167  27.7%  77.0   55s
H 1508  1508                    -25414.00000 -32427.167  27.6%  76.4   55s
H 1534  1534                    -25416.00000 -32427.167  27.6%  76.2   56s
H 1560  1560                    -25428.00000 -32427.167  27.5%  75.4   56s
H 1586  1586                    -25440.00000 -32427.167  27.5%  75.1   57s
H 1612  1612                    -25446.00000 -32427.167  27.4%  74.8   58s
H 1638  1638                    -25464.00000 -32427.167  27.3%  74.4   58s
H 1664  1664                    -25470.00000 -32427.167  27.3%  74.0   59s
  1686  1688 -26516.500  847 7989 -25470.000 -32427.167  27.3%  73.6   60s
H 1690  1690                    -25474.00000 -32427.167  27.3%  73.5   60s
H 1716  1716                    -25492.00000 -32427.167  27.2%  73.1   60s
H 1768  1768                    -25502.00000 -32427.167  27.2%  72.6   62s
H 1794  1794                    -25514.00000 -32427.167  27.1%  72.2   63s
H 1820  1820                    -25530.00000 -32427.167  27.0%  71.9   64s
H 1846  1846                    -25554.00000 -32427.167  26.9%  71.6   64s
  1847  1849 -26096.500  929 7817 -25554.000 -32427.167  26.9%  71.6   65s
H 1872  1872                    -25564.00000 -32427.167  26.8%  71.3   66s
H 1898  1898                    -25596.00000 -32427.167  26.7%  71.0   67s
H 1924  1924                    -25608.00000 -32427.167  26.6%  70.6   69s
  1929  1931 -25897.500  970 7755 -25608.000 -32427.167  26.6%  70.6   70s
H 1980  1980                    -25630.00000 -32427.167  26.5%  69.7   73s
  1981  1983 -25795.500  996 7714 -25630.000 -32427.167  26.5%  69.7   76s
  2103  2067 -27641.000  618 9424 -25630.000 -32427.167  26.5%  67.6   82s
  2105  2068 -31651.000   82 4043 -25630.000 -32427.167  26.5%  67.5   85s
  2109  2071 -26428.000  868 6718 -25630.000 -30961.979  20.8%  67.4   93s
  2110  2072 -29476.000  344 6890 -25630.000 -30849.033  20.4%  67.3   96s
  2117  2076 -27478.500  644 7668 -25630.000 -30262.109  18.1%  67.1  121s
  2118  2077 -25783.500 1000 8262 -25630.000 -30079.355  17.4%  67.1  152s
  2119  2078 -28468.667  490 8648 -25630.000 -30018.863  17.1%  67.1  181s
  2120  2078 -27484.500  643 8710 -25630.000 -30001.414  17.1%  67.0  201s
  2121  2079 -26188.500  911 8783 -25630.000 -29997.166  17.0%  67.0  210s
  2123  2080 -29993.191  233 8955 -25630.000 -29993.191  17.0%  66.9  216s
  2128  2084 -29467.000  345 9187 -25630.000 -29992.553  17.0%  66.8  220s
  2134  2088 -29611.612  186 9773 -25630.000 -29611.612  15.5%  66.6  339s
  2135  2088 -26052.500  941 9994 -25630.000 -29524.569  15.2%  66.6  429s
  2136  2089 -25974.167  956 10466 -25630.000 -29459.398  14.9%  66.5  506s
  2137  2090 -28020.500  556 10716 -25630.000 -29438.182  14.9%  66.5  573s
  2138  2090 -29431.125    3 11027 -25630.000 -29431.125  14.8%  66.5  593s
  2139  2091 -29427.992  179 11171 -25630.000 -29427.992  14.8%  66.4  606s
  2140  2092 -29426.236  158 11208 -25630.000 -29426.236  14.8%  66.4  616s
  2141  2092 -29425.472  122 11323 -25630.000 -29425.472  14.8%  66.4  622s
  2142  2093 -29425.100  123 11348 -25630.000 -29425.100  14.8%  66.3  626s
  2144  2094 -27630.000  620 11385 -25630.000 -29424.850  14.8%  66.3  631s
  2147  2096 -29424.805   21 11415 -25630.000 -29424.805  14.8%  66.2  636s
  2148  2097 -27968.500  565 11891 -25630.000 -29141.071  13.7%  66.2  879s
  2149  2098 -26972.500  735 12267 -25630.000 -29075.264  13.4%  66.1 1074s
  2150  2098 -29019.958   22 12561 -25630.000 -29019.958  13.2%  66.1 1258s
  2151  2099 -28997.340   14 12905 -25630.000 -28997.340  13.1%  66.1 1400s
  2152  2100 -28989.878  123 13143 -25630.000 -28989.878  13.1%  66.0 1463s
  2153  2100 -27407.500  656 13266 -25630.000 -28986.502  13.1%  66.0 1494s
  2154  2101 -28985.488   15 13417 -25630.000 -28985.488  13.1%  66.0 1509s
  2155  2102 -27547.667  631 13500 -25630.000 -28985.036  13.1%  65.9 1518s
  2156  2102 -28520.667  481 13537 -25630.000 -28984.752  13.1%  65.9 1525s
  2158  2104 -28984.538  376 13607 -25630.000 -28984.538  13.1%  65.8 1533s
  2159  2104 -28984.497  336 13588 -25630.000 -28984.497  13.1%  65.8 1536s
  2161  2106 -28451.667  492 13617 -25630.000 -28984.422  13.1%  65.8 1540s
  2164  2108 -28984.398  382 13648 -25630.000 -28984.398  13.1%  65.7 1546s
  2165  2108 -27025.500  722 13945 -25630.000 -28753.077  12.2%  65.6 1928s
  2166  2109 -26986.500  732 14355 -25630.000 -28709.222  12.0%  65.6 2177s
  2167  2110 -28451.667  492 14617 -25630.000 -28664.395  11.8%  65.6 2417s
  2168  2110 -26644.000  819 15013 -25630.000 -28648.256  11.8%  65.5 2547s
  2169  2111 -27610.000  623 15204 -25630.000 -28642.908  11.8%  65.5 2618s
  2170  2112 -26436.000  866 15299 -25630.000 -28640.764  11.7%  65.5 2657s
  2171  2112 -25981.167  955 15403 -25630.000 -28639.834  11.7%  65.5 2678s
  2172  2113 -28639.449  363 15452 -25630.000 -28639.449  11.7%  65.4 2690s
  2173  2114 -26923.500  746 15552 -25630.000 -28639.255  11.7%  65.4 2698s
  2174  2114 -28639.167  320 15588 -25630.000 -28639.167  11.7%  65.4 2704s
  2175  2115 -28556.667  474 15586 -25630.000 -28639.135  11.7%  65.3 2707s
  2177  2116 -27435.500  651 15583 -25630.000 -28639.118  11.7%  65.3 2715s
  2178  2117 -27236.500  683 16066 -25630.000 -28449.473  11.0%  65.2 3253s
  2179  2118 -25775.500 1003 16433 -25630.000 -28417.912  10.9%  65.2 3559s
  2180  2118 -26135.500  923 16878 -25630.000 -28390.118  10.8%  65.2 3826s
  2181  2119 -26933.500  745 17142 -25630.000 -28380.255  10.7%  65.2 3984s
  2182  2120 -27846.500  586 17181 -25630.000 -28377.689  10.7%  65.1 4048s
  2183  2120 -25927.167  965 17337 -25630.000 -28376.702  10.7%  65.1 4085s
  2184  2121 -27511.200  640 17401 -25630.000 -28376.290  10.7%  65.1 4105s
  2185  2122 -26893.500  756 17424 -25630.000 -28376.074  10.7%  65.0 4118s
  2186  2122 -26109.500  928 17472 -25630.000 -28375.980  10.7%  65.0 4126s
  2187  2123 -25725.500 1016 17519 -25630.000 -28375.939  10.7%  65.0 4131s
  2189  2124 -28375.921   71 17521 -25630.000 -28375.921  10.7%  64.9 4138s
H 2189  2016                    -25636.00000 -28267.399  10.3%  64.9 4702s
  2191  2018 -28243.460  226 17888 -25636.000 -28243.460  10.2%  64.9 5022s
  2192  2018 -28238.112  270 18003 -25636.000 -28238.112  10.2%  64.8 5146s
  2193  2019 -27107.500  706 18057 -25636.000 -28236.658  10.1%  64.8 5196s
  2194  2020 -26203.500  908 18191 -25636.000 -28236.245  10.1%  64.8 5218s
  2195  2020 -28235.872   25 18095 -25636.000 -28235.872  10.1%  64.7 5246s
  2196  2021 -26968.500  736 18171 -25636.000 -28235.724  10.1%  64.7 5261s
  2197  2022 -27143.500  699 18149 -25636.000 -28235.673  10.1%  64.7 5267s
  2198  2022 -28235.644  216 18185 -25636.000 -28235.644  10.1%  64.6 5272s
  2199  2023 -28235.637  495 18191 -25636.000 -28235.637  10.1%  64.6 5275s
  2201  2024 -25647.167 1040 18316 -25636.000 -28154.743  9.83%  64.6 5827s
  2202  2025 -28138.962  458 18623 -25636.000 -28138.962  9.76%  64.5 6128s
  2203  2026 -27641.000  618 18770 -25636.000 -28135.712  9.75%  64.5 6229s
  2204  2026 -27542.500  633 18900 -25636.000 -28134.889  9.75%  64.5 6267s
  2205  2027 -28134.481   82 18877 -25636.000 -28134.481  9.75%  64.4 6300s
  2206  2028 -28134.384  435 18842 -25636.000 -28134.384  9.75%  64.4 6315s
  2207  2028 -28134.354  125 18884 -25636.000 -28134.354  9.75%  64.4 6322s
  2209  2030 -26428.000  868 18906 -25636.000 -28134.338  9.75%  64.3 6327s
  2210  2030 -28134.335  344 18912 -25636.000 -28134.335  9.75%  64.3 6331s
  2211  2031 -28071.809  395 18982 -25636.000 -28071.809  9.50%  64.3 6901s
  2212  2032 -26428.000  868 19128 -25636.000 -28059.390  9.45%  64.2 7194s
  2213  2032 -28057.209  370 19225 -25636.000 -28057.209  9.44%  64.2 7304s
  2214  2033 -28056.672  286 19263 -25636.000 -28056.672  9.44%  64.2 7347s
  2215  2034 -28056.520  498 19275 -25636.000 -28056.520  9.44%  64.2 7363s
  2216  2034 -28056.442  280 19285 -25636.000 -28056.442  9.44%  64.1 7373s
  2217  2035 -27478.500  644 19291 -25636.000 -28056.359  9.44%  64.1 7385s
  2218  2036 -25783.500 1000 19316 -25636.000 -28056.331  9.44%  64.1 7393s
  2219  2036 -28056.322  490 19331 -25636.000 -28056.322  9.44%  64.0 7396s
  2220  2037 -27484.500  643 19342 -25636.000 -28056.319  9.44%  64.0 7402s
  2221  2038 -26188.500  911 19083 -25636.000 -28005.064  9.24%  64.0 7977s

Cutting planes:
  Gomory: 187
  MIR: 716
  Flow cover: 6496
  Zero half: 2655
  Mod-K: 113
  RLT: 864
  BQP: 1259

Explored 2221 nodes (3416210 simplex iterations) in 8192.04 seconds (12789.08 work units)
Thread count was 1 (of 72 available processors)

Solution count 10: -25636 -25630 -25608 ... -25492

Time limit reached
Best objective -2.563600000000e+04, best bound -2.800400000000e+04, gap 9.2370%

User-callback calls 24995, time in user-callback 0.14 sec

BQP_SOLUTION, 4046, 18850, -8999.000000, 8192.039289, -1, 1, -1, 1, -1, 1, -1, 1, 1, -1, 1, 1, -1, -1, 1, -1, 1, -1, -1, -1, 1, -1, -1, 1, 1, 1, 1, 1, -1, 1, 1, -1, -1, 1, -1, -1, 1, 1, -1, 1, 1, -1, 1, 1, -1, -1, 1, 1, -1, 1, 1, 1, 1, 1, 1, -1, 1, -1, -1, -1, -1, -1, 1, 1, 1, 1, -1, 1, 1, -1, -1, -1, 1, 1, -1, 1, 1, 1, 1, 1, 1, -1, 1, -1, -1, 1, -1, -1, -1, 1, -1, 1, 1, 1, -1, 1, -1, -1, 1, -1, 1, -1, 1, 1, 1, -1, 1, -1, 1, 1, -1, -1, 1, -1, -1, 1, 1, 1, -1, 1, -1, 1, -1, 1, -1, 1, -1, 1, 1, 1, -1, 1, 1, -1, -1, 1, -1, 1, -1, -1, -1, 1, 1, 1, -1, 1, -1, -1, 1, -1, -1, 1, -1, -1, 1, 1, 1, 1, 1, -1, 1, -1, 1, -1, -1, -1, 1, 1, -1, 1, 1, -1, -1, 1, -1, -1, 1, -1, -1, 1, 1, 1, 1, 1, 1, -1, 1, 1, 1, -1, -1, -1, 1, 1, -1, -1, 1, 1, -1, 1, -1, 1, -1, -1, 1, 1, -1, 1, -1, 1, 1, -1, 1, 1, -1, -1, -1, -1, -1, 1, 1, 1, -1, 1, -1, -1, -1, 1, -1, 1, -1, 1, 1, 1, 1, 1, 1, 1, -1, 1, 1, 1, -1, 1, 1, 1, 1, -1, 1, 1, 1, -1, 1, 1, -1, 1, -1, 1, 1, 1, 1, 1, -1, 1, -1, 1, 1, 1, -1, 1, 1, 1, 1, -1, -1, 1, 1, -1, 1, 1, -1, 1, -1, 1, -1, 1, 1, -1, 1, 1, -1, 1, 1, -1, 1, -1, 1, 1, 1, -1, -1, -1, 1, -1, 1, 1, -1, -1, 1, -1, -1, 1, 1, -1, 1, -1, -1, 1, -1, -1, 1, 1, -1, 1, -1, -1, -1, 1, -1, -1, 1, -1, -1, -1, 1, -1, 1, -1, -1, 1, 1, -1, -1, -1, -1, -1, 1, 1, -1, 1, 1, -1, -1, 1, -1, -1, 1, -1, -1, 1, -1, 1, 1, -1, -1, 1, 1, 1, -1, 1, -1, -1, 1, -1, 1, 1, 1, -1, 1, 1, 1, -1, 1, 1, -1, 1, 1, 1, 1, -1, 1, -1, -1, -1, -1, -1, 1, -1, 1, -1, 1, 1, 1, -1, -1, 1, 1, -1, 1, -1, -1, 1, -1, -1, 1, -1, 1, -1, 1, -1, -1, 1, -1, -1, 1, -1, 1, -1, -1, 1, 1, 1, -1, -1, 1, -1, 1, -1, -1, 1, 1, 1, -1, 1, -1, -1, -1, 1, -1, -1, 1, -1, 1, 1, -1, -1, -1, 1, -1, -1, -1, -1, 1, 1, 1, 1, 1, -1, 1, -1, -1, 1, 1, 1, -1, 1, -1, -1, 1, -1, -1, 1, -1, -1, -1, 1, -1, 1, 1, 1, -1, 1, -1, -1, 1, -1, 1, 1, 1, 1, 1, 1, 1, 1, 1, -1, 1, -1, -1, -1, 1, 1, 1, 1, 1, -1, 1, 1, 1, -1, 1, 1, -1, -1, 1, -1, 1, 1, 1, 1, -1, 1, 1, -1, 1, -1, -1, 1, 1, 1, 1, 1, -1, 1, -1, 1, 1, 1, -1, -1, 1, 1, 1, 1, -1, 1, -1, 1, 1, -1, 1, -1, -1, 1, 1, 1, 1, -1, 1, -1, 1, 1, 1, 1, -1, -1, 1, 1, 1, -1, 1, 1, -1, -1, 1, -1, 1, -1, -1, 1, 1, 1, 1, 1, 1, 1, 1, 1, -1, 1, -1, -1, -1, 1, -1, -1, -1, 1, 1, -1, -1, 1, 1, -1, -1, -1, -1, 1, 1, -1, 1, 1, -1, 1, -1, 1, 1, -1, 1, 1, 1, -1, 1, 1, -1, 1, 1, -1, 1, -1, -1, 1, 1, 1, -1, 1, 1, -1, -1, 1, -1, 1, 1, -1, -1, 1, 1, -1, 1, 1, -1, 1, 1, -1, 1, -1, -1, 1, 1, 1, -1, -1, 1, -1, 1, 1, -1, -1, 1, -1, -1, 1, 1, 1, -1, 1, -1, -1, 1, 1, 1, -1, -1, -1, 1, 1, -1, -1, 1, -1, 1, 1, 1, -1, 1, -1, 1, 1, 1, -1, -1, 1, -1, -1, 1, 1, -1, 1, -1, 1, -1, 1, 1, -1, -1, -1, 1, -1, 1, -1, 1, 1, -1, 1, 1, 1, -1, -1, -1, -1, -1, 1, -1, 1, -1, 1, -1, 1, 1, -1, 1, -1, 1, 1, 1, 1, 1, -1, 1, 1, 1, 1, 1, 1, -1, -1, -1, 1, -1, 1, 1, 1, -1, 1, 1, 1, -1, -1, -1, 1, -1, -1, 1, 1, -1, 1, -1, 1, -1, 1, -1, 1, -1, 1, -1, 1, -1, -1, 1, 1, 1, -1, -1, -1, 1, 1, 1, -1, 1, 1, 1, -1, 1, 1, -1, -1, -1, 1, -1, 1, -1, 1, 1, 1, 1, 1, -1, 1, -1, -1, 1, -1, 1, 1, 1, 1, 1, 1, 1, 1, -1, -1, -1, -1, -1, 1, -1, 1, -1, 1, -1, 1, 1, 1, -1, 1, -1, -1, 1, -1, -1, 1, 1, 1, -1, 1, -1, 1, -1, 1, -1, 1, -1, -1, 1, 1, 1, -1, -1, 1, 1, -1, -1, -1, 1, 1, -1, 1, 1, 1, -1, -1, 1, -1, 1, -1, 1, -1, 1, 1, -1, 1, -1, -1, -1, 1, -1, 1, -1, -1, 1, 1, -1, 1, -1, 1, -1, -1, 1, 1, -1, 1, -1, 1, 1, -1, 1, 1, 1, -1, -1, 1, -1, -1, -1, 1, 1, -1, 1, -1, 1, -1, -1, 1, -1, -1, -1, -1, 1, 1, -1, 1, 1, 1, -1, -1, 1, -1, -1, -1, 1, 1, 1, 1, 1, 1, 1, 1, -1, 1, -1, -1, -1, 1, 1, 1, 1, 1, 1, -1, 1, -1, -1, 1, -1, -1, 1, 1, 1, -1, 1, 1, 1, 1, 1, -1, 1, -1, 1, 1, 1, 1, -1, 1, 1, 1, -1, -1, 1, -1, -1, 1, 1, 1, 1, 1, 1, 1, 1, -1, 1, -1, -1, -1, 1, 1, 1, -1, 1, 1, 1, -1, -1, 1, -1, -1, -1, -1, -1, 1, 1, 1, 1, 1, -1, -1, -1, 1, -1, -1, -1, 1, 1, 1, 1, 1, 1, -1, 1, 1, -1, -1, -1, -1, 1, 1, 1, 1, 1, 1, -1, -1, 1, -1, -1, -1, 1, 1, 1, 1, -1, 1, 1, -1, 1, 1, 1, -1, -1, -1, 1, 1, 1, 1, 1, -1, -1, 1, 1, -1, -1, 1, -1, 1, 1, 1, 1, -1, -1, -1, 1, 1, -1, 1, 1, 1, 1, 1, -1, -1, -1, -1, 1, -1, 1, -1, 1, -1, 1, 1, 1, 1, 1, 1, -1, 1, 1, -1, -1, 1, -1, 1, 1, 1, 1, 1, -1, -1, -1, -1, 1, -1, 1, -1, 1, 1, 1, 1, 1, -1, -1, 1, -1, 1, 1, -1, 1, 1, 1, 1, -1, 1, -1, -1, 1, -1, 1, -1, 1, 1, 1, 1, 1, 1, 1, -1, -1, 1, -1, 1, -1, 1, 1, 1, 1, -1, 1, -1, 1, -1, 1, -1, 1, -1, -1, 1, 1, 1, 1, 1, -1, 1, -1, -1, 1, 1, 1, 1, 1, 1, -1, 1, 1, -1, -1, 1, -1, -1, 1, -1, 1, 1, -1, 1, -1, -1, -1, 1, -1, -1, 1, -1, -1, -1, 1, 1, 1, -1, -1, -1, 1, -1, 1, -1, 1, -1, 1, 1, 1, 1, -1, 1, -1, -1, 1, 1, -1, 1, -1, 1, 1, 1, 1, -1, -1, -1, 1, -1, 1, -1, 1, -1, 1, 1, 1, 1, -1, -1, 1, -1, 1, 1, -1, -1, -1, 1, 1, -1, 1, -1, -1, 1, 1, -1, -1, -1, -1, -1, 1, 1, 1, 1, -1, 1, -1, -1, -1, -1, -1, 1, 1, -1, 1, -1, 1, -1, -1, 1, -1, 1, -1, 1, -1, 1, -1, 1, -1, 1, -1, 1, -1, -1, 1, 1, -1, 1, 1, -1, 1, -1, 1, 1, -1, 1, -1, 1, 1, 1, -1, 1, 1, 1, -1, -1, 1, -1, -1, 1, -1, 1, -1, -1, 1, -1, -1, -1, -1, -1, -1, 1, -1, 1, 1, -1, 1, 1, 1, 1, -1, -1, 1, -1, 1, 1, 1, 1, 1, -1, 1, -1, 1, -1, 1, -1, 1, 1, -1, -1, -1, 1, 1, 1, -1, -1, -1, -1, -1, 1, 1, -1, 1, 1, -1, 1, 1, 1, 1, 1, -1, -1, -1, 1, -1, -1, 1, 1, 1, 1, 1, 1, 1, 1, -1, 1, 1, -1, 1, 1, 1, 1, -1, 1, 1, -1, 1, -1, -1, 1, 1, -1, 1, 1, 1, 1, 1, 1, -1, 1, 1, 1, -1, 1, -1, 1, 1, -1, -1, 1, -1, 1, -1, 1, -1, 1, -1, -1, -1, 1, -1, 1, 1, 1, 1, -1, -1, 1, 1, 1, -1, 1, 1, 1, 1, -1, 1, 1, 1, -1, -1, 1, -1, -1, -1, 1, -1, 1, 1, -1, 1, 1, -1, -1, 1, 1, -1, 1, 1, -1, 1, 1, -1, -1, 1, 1, -1, 1, 1, -1, 1, 1, 1, 1, 1, -1, 1, 1, -1, -1, 1, -1, -1, -1, 1, -1, 1, -1, 1, 1, -1, 1, -1, -1, -1, 1, 1, 1, -1, 1, 1, -1, 1, -1, -1, 1, 1, -1, -1, 1, 1, 1, 1, 1, -1, 1, 1, -1, 1, 1, -1, -1, 1, -1, -1, 1, 1, 1, 1, 1, -1, -1, 1, -1, -1, 1, -1, 1, 1, -1, 1, -1, 1, -1, -1, 1, 1, -1, 1, -1, 1, 1, 1, 1, 1, -1, 1, -1, 1, -1, -1, 1, 1, -1, 1, -1, 1, 1, 1, -1, -1, -1, -1, -1, 1, -1, -1, 1, -1, 1, -1, -1, -1, 1, -1, -1, -1, 1, 1, -1, 1, -1, 1, 1, 1, -1, -1, 1, -1, -1, -1, 1, -1, -1, 1, 1, -1, -1, 1, 1, 1, -1, -1, 1, -1, -1, -1, -1, 1, -1, -1, -1, 1, 1, -1, -1, 1, -1, -1, -1, 1, 1, -1, 1, 1, 1, 1, 1, -1, -1, 1, -1, -1, -1, 1, -1, 1, 1, -1, 1, -1, -1, 1, -1, -1, 1, 1, 1, -1, 1, 1, -1, -1, -1, 1, -1, -1, -1, 1, -1, 1, -1, 1, 1, 1, -1, -1, 1, -1, -1, -1, 1, -1, -1, -1, 1, 1, 1, 1, -1, 1, 1, -1, -1, 1, 1, 1, -1, -1, 1, 1, -1, -1, -1, 1, -1, -1, 1, -1, -1, -1, 1, 1, 1, 1, 1, -1, 1, -1, -1, 1, 1, 1, -1, -1, 1, -1, 1, 1, -1, 1, -1, -1, 1, -1, 1, -1, -1, 1, 1, -1, 1, -1, -1, 1, -1, 1, -1, 1, 1, -1, 1, 1, 1, 1, -1, 1, -1, -1, -1, 1, 1, -1, -1, 1, 1, 1, 1, -1, 1, -1, -1, -1, 1, -1, -1, 1, 1, 1, -1, 1, -1, -1, -1, -1, 1, 1, 1, 1, -1, 1, -1, 1, 1, -1, -1, -1, -1, 1, -1, 1, 1, -1, -1, 1, -1, 1, -1, 1, -1, -1, 1, -1, 1, -1, 1, -1, -1, 1, 1, -1, -1, -1, -1, 1, -1, -1, 1, 1, -1, 1, -1, -1, -1, -1, -1, -1, 1, -1, 1, 1, 1, 1, -1, 1, -1, -1, 1, -1, 1, 1, 1, -1, 1, -1, -1, -1, -1, 1, -1, -1, -1, -1, -1, 1, -1, 1, -1, 1, -1, 1, 1, -1, 1, -1, 1, 1, -1, -1, 1, 1, -1, -1, -1, -1, -1, 1, -1, -1, -1, -1, -1, 1, 1, 1, -1, 1, -1, -1, -1, 1, -1, -1, 1, 1, 1, 1, 1, -1, -1, 1, -1, -1, -1, -1, -1, 1, 1, -1, 1, 1, -1, -1, -1, 1, -1, -1, -1, -1, 1, 1, 1, 1, 1, -1, -1, -1, -1, -1, 1, -1, 1, 1, -1, 1, 1, -1, 1, -1, -1, -1, -1, 1, -1, 1, 1, -1, -1, 1, -1, -1, 1, -1, 1, 1, 1, -1, 1, 1, -1, 1, -1, -1, 1, 1, -1, -1, 1, -1, 1, -1, -1, -1, 1, 1, -1, -1, 1, -1, -1, 1, 1, -1, 1, -1, -1, 1, -1, -1, 1, -1, 1, -1, 1, -1, 1, -1, 1, -1, 1, 1, -1, 1, -1, -1, 1, -1, 1, -1, 1, 1, -1, 1, -1, -1, 1, -1, -1, 1, -1, -1, -1, 1, -1, 1, 1, -1, -1, 1, -1, -1, 1, -1, -1, 1, -1, -1, 1, 1, -1, -1, 1, -1, -1, 1, -1, 1, -1, 1, 1, 1, 1, 1, -1, 1, -1, -1, 1, -1, -1, -1, 1, 1, -1, 1, 1, -1, 1, -1, -1, -1, 1, -1, 1, 1, 1, 1, 1, -1, -1, 1, -1, -1, 1, 1, -1, 1, -1, 1, -1, -1, 1, -1, -1, -1, -1, -1, -1, -1, 1, -1, -1, -1, 1, -1, 1, -1, -1, -1, 1, 1, 1, 1, -1, -1, -1, 1, 1, -1, -1, -1, -1, -1, -1, 1, -1, -1, -1, -1, 1, 1, -1, -1, -1, -1, 1, -1, 1, -1, 1, -1, 1, 1, 1, -1, -1, -1, -1, -1, -1, 1, 1, -1, 1, 1, 1, 1, -1, -1, -1, -1, 1, -1, 1, 1, -1, 1, -1, -1, -1, -1, -1, -1, -1, -1, -1, -1, 1, -1, -1, 1, -1, 1, 1, -1, -1, -1, -1, 1, -1, 1, -1, -1, -1, 1, -1, 1, -1, -1, -1, -1, 1, 1, 1, -1, -1, -1, 1, -1, 1, -1, -1, -1, 1, 1, -1, 1, -1, -1, -1, 1, -1, 1, 1, -1, -1, -1, -1, 1, 1, -1, -1, -1, 1, -1, 1, -1, -1, -1, 1, 1, 1, 1, 1, -1, -1, -1, -1, 1, -1, -1, -1, -1, 1, -1, 1, -1, -1, 1, -1, 1, 1, -1, -1, -1, -1, 1, 1, 1, -1, -1, -1, -1, -1, 1, -1, -1, -1, 1, 1, 1, 1, -1, -1, -1, 1, -1, 1, 1, -1, 1, -1, 1, -1, 1, -1, -1, -1, 1, -1, 1, -1, 1, 1, -1, 1, 1, -1, -1, 1, 1, -1, 1, -1, 1, -1, 1, 1, -1, 1, -1, 1, -1, 1, -1, 1, 1, -1, -1, 1, 1, 1, -1, -1, -1, -1, 1, 1, -1, 1, 1, -1, 1, 1, 1, -1, -1, 1, 1, -1, 1, 1, 1, -1, 1, 1, 1, -1, 1, -1, 1, -1, -1, 1, 1, 1, -1, -1, 1, 1, 1, 1, -1, 1, -1, -1, 1, 1, -1, 1, -1, 1, 1, 1, -1, -1, 1, -1, -1, 1, -1, 1, 1, -1, 1, 1, 1, -1, -1, 1, 1, -1, 1, -1, 1, -1, -1, 1, 1, 1, -1, -1, 1, -1, 1, 1, -1, 1, -1, -1, 1, 1, -1, -1, -1, 1, -1, 1, 1, -1, 1, -1, 1, 1, -1, -1, 1, 1, 1, -1, 1, 1, -1, 1, -1, 1, -1, 1, -1, 1, -1, 1, -1, -1, 1, -1, -1, 1, -1, 1, 1, -1, -1, -1, 1, 1, -1, 1, -1, 1, -1, 1, -1, -1, 1, -1, -1, 1, 1, -1, 1, -1, -1, -1, -1, 1, 1, -1, 1, 1, -1, 1, 1, 1, 1, -1, -1, 1, -1, -1, 1, -1, 1, 1, 1, 1, 1, 1, -1, -1, 1, 1, -1, 1, -1, -1, 1, 1, 1, 1, -1, -1, -1, 1, 1, -1, -1, 1, -1, 1, -1, 1, -1, 1, -1, -1, 1, -1, 1, -1, 1, -1, 1, 1, 1, 1, -1, -1, -1, 1, -1, 1, -1, 1, -1, 1, 1, 1, -1, -1, -1, -1, 1, 1, -1, 1, 1, 1, 1, 1, 1, -1, 1, -1, 1, -1, -1, -1, 1, 1, 1, 1, 1, 1, -1, -1, -1, 1, 1, -1, -1, -1, 1, -1, 1, 1, 1, -1, -1, -1, 1, 1, -1, -1, -1, 1, -1, 1, 1, 1, 1, -1, 1, 1, -1, -1, -1, 1, -1, -1, 1, 1, 1, 1, -1, -1, 1, -1, -1, 1, -1, 1, -1, 1, 1, 1, -1, 1, -1, 1, 1, -1, 1, -1, 1, -1, -1, 1, 1, -1, -1, -1, -1, 1, -1, 1, -1, 1, -1, 1, 1, -1, 1, -1, -1, -1, 1, -1, 1, -1, 1, 1, -1, 1, 1, 1, -1, -1, -1, 1, -1, -1, 1, 1, -1, -1, 1, -1, 1, 1, -1, -1, 1, -1, 1, -1, 1, 1, -1, 1, -1, 1, -1, -1, 1, -1, -1, 1, -1, 1, 1, -1, 1, -1, 1, 1, 1, -1, 1, -1, 1, -1, 1, -1, -1, 1, 1, 1, -1, -1, 1, -1, 1, 1, -1, 1, -1, 1, -1, 1, -1, -1, 1, 1, 1, -1, -1, -1, 1, 1, -1, 1, 1, -1, 1, -1, 1, 1, -1, 1, 1, 1, 1, -1, -1, -1, -1, -1, 1, -1, -1, 1, 1, 1, -1, 1, -1, 1, -1, -1, -1, -1, 1, -1, 1, 1, 1, -1, 1, -1, -1, -1, 1, -1, -1, 1, 1, -1, 1, -1, 1, 1, -1, -1, 1, -1, -1, 1, -1, 1, 1, 1, 1, 1, 1, -1, -1, 1, 1, -1, 1, 1, -1, 1, 1, -1, 1, 1, -1, -1, -1, 1, -1, -1, 1, 1, -1, 1, 1, -1, 1, 1, 1, -1, 1, -1, 1, 1, 1, 1, 1, 1, -1, 1, -1, -1, 1, 1, -1, -1, 1, -1, 1, 1, 1, -1, 1, 1, 1, -1, -1, 1, 1, 1, -1, 1, 1, 1, -1, 1, -1, 1, -1, 1, -1, 1, 1, 1, 1, -1, -1, 1, -1, -1, -1, 1, -1, 1, -1, 1, 1, 1, -1, 1, -1, 1, 1, -1, -1, -1, 1, 1, 1, 1, 1, -1, 1, -1, -1, -1, -1, 1, -1, 1, 1, -1, 1, 1, -1, 1, 1, -1, 1, -1, -1, -1, 1, 1, -1, 1, 1, -1, 1, 1, -1, 1, -1, -1, 1, -1, 1, -1, 1, 1, -1, 1, 1, -1, 1, 1, -1, 1, 1, 1, -1, 1, 1, 1, 1, 1, 1, 1, -1, -1, 1, -1, 1, -1, -1, 1, 1, -1, 1, -1, 1, -1, -1, 1, -1, 1, -1, 1, -1, 1, 1, 1, 1, 1, -1, -1, -1, 1, 1, -1, 1, -1, 1, 1, 1, -1, 1, -1, -1, -1, 1, -1, 1, -1, 1, -1, 1, 1, -1, 1, -1, -1, 1, 1, 1, 1, 1, 1, 1, 1, -1, 1, 1, 1, -1, 1, 1, 1, -1, -1, 1, 1, 1, 1, 1, 1, -1, -1, 1, -1, 1, -1, 1, 1, 1, 1, 1, 1, 1, -1, -1, 1, 1, -1, -1, -1, 1, 1, -1, 1, 1, -1, -1, -1, 1, 1, -1, -1, 1, 1, 1, 1, 1, 1, 1, 1, -1, 1, 1, -1, 1, 1, -1, 1, 1, -1, 1, 1, -1, -1, -1, 1, -1, 1, -1, 1, 1, 1, -1, 1, 1, -1, -1, 1, 1, -1, 1, -1, -1, 1, 1, -1, 1, 1, -1, -1, 1, 1, -1, 1, -1, -1, 1, 1, -1, 1, 1, -1, -1, 1, -1, 1, -1, 1, -1, 1, 1, -1, 1, 1, -1, -1, -1, 1, 1, -1, -1, -1, -1, 1, -1, 1, -1, -1, -1, -1, 1, 1, -1, -1, -1, -1, 1, -1, 1, 1, -1, 1, -1, 1, 1, 1, -1, -1, -1, 1, -1, 1, 1, -1, -1, 1, -1, 1, -1, -1, -1, 1, 1, 1, 1, -1, -1, -1, 1, -1, 1, 1, -1, -1, 1, 1, 1, -1, -1, 1, -1, 1, -1, 1, -1, -1, -1, -1, 1, 1, 1, -1, 1, -1, 1, 1, 1, -1, 1, -1, 1, 1, 1, -1, -1, -1, 1, 1, -1, 1, 1, -1, 1, -1, -1, -1, 1, -1, -1, -1, 1, -1, 1, 1, -1, 1, 1, 1, 1, 1, -1, -1, 1, -1, 1, 1, 1, -1, 1, -1, -1, 1, 1, -1, 1, -1, -1, 1, 1, -1, -1, 1, 1, 1, -1, 1, 1, -1, 1, 1, 1, -1, 1, 1, 1, -1, 1, 1, 1, -1, -1, 1, -1, -1, 1, 1, 1, -1, 1, 1, -1, 1, -1, -1, 1, -1, 1, 1, 1, 1, 1, 1, 1, 1, 1, 1, -1, 1, -1, -1, -1, 1, -1, 1, 1, 1, 1, 1, -1, 1, 1, -1, -1, 1, -1, 1, 1, 1, -1, 1, -1, -1, 1, -1, -1, 1, 1, -1, 1, 1, 1, 1, 1, 1, 1, 1, 1, -1, 1, -1, 1, 1, 1, 1, -1, 1, -1, 1, 1, 1, -1, 1, -1, 1, 1, 1, 1, 1, 1, -1, -1, -1, 1, -1, 1, -1, 1, -1, 1, 1, 1, 1, -1, 1, 1, -1, 1, 1, -1, 1, 1, 1, 1, 1, 1, -1, -1, -1, 1, 1, 1, -1, -1, 1, 1, 1, 1, 1, 1, 1, -1, 1, 1, -1, -1, 1, -1, -1, 1, 1, 1, 1, 1, 1, 1, 1, 1, 1, 1, -1, 1, 1, 1, 1, -1, 1, -1, 1, 1, 1, -1, 1, -1, -1, 1, 1, -1, 1, -1, -1, -1, 1, 1, 1, -1, -1, -1, 1, 1, 1, 1, 1, 1, -1, 1, 1, -1, 1, -1, 1, 1, 1, 1, -1, 1, -1, 1, -1, 1, 1, -1, -1, 1, 1, 1, -1, -1, -1, -1, 1, 1, 1, -1, -1, -1, 1, 1, 1, 1, -1, 1, -1, 1, 1, 1, -1, 1, -1, 1, 1, 1, -1, 1, -1, -1, 1, -1, 1, 1, -1, -1, 1, 1, 1, 1, 1, 1, -1, -1, 1, 1, 1, 1, 1, -1, 1, 1, 1, -1, 1, -1, 1, 1, 1, 1, -1, -1, 1, 1, -1, -1, -1, -1, -1, 1, 1, 1, 1, -1, -1, -1, 1, 1, 1, 1, 1, -1, 1, -1, 1, 1, -1, 1, -1, 1, 1, -1, 1, -1, -1, 1, 1, 1, 1, 1, -1, 1, 1, 1, 1, -1, 1, 1, 1, -1, 1, 1, 1, -1, -1, 1, 1, -1, -1, 1, -1, 1, 1, 1, -1, 1, -1, -1, -1, 1, -1, -1, -1, 1, 1, -1, 1, -1, 1, -1, 1, 1, 1, -1, 1, -1, -1, 1, 1, 1, 1, -1, -1, 1, -1, 1, -1, 1, -1, -1, 1, 1, 1, -1, 1, -1, 1, -1, -1, -1, 1, -1, 1, 1, 1, 1, -1, -1, 1, -1, -1, 1, -1, -1, -1, 1, 1, 1, 1, -1, 1, -1, -1, -1, -1, -1, 1, -1, -1, 1, 1, 1, -1, -1, -1, 1, -1, 1, 1, -1, -1, 1, 1, 1, -1, -1, 1, -1, 1, -1, -1, -1, -1, -1, 1, 1, 1, 1, -1, -1, 1, -1, -1, 1, -1, -1, -1, -1, 1, 1, 1, -1, 1, -1, -1, -1, -1, -1, -1, -1, 1, 1, 1, -1, 1, -1, 1, -1, -1, -1, -1, -1, -1, 1, 1, 1, -1, 1, 1, -1, -1, -1, -1, -1, -1, -1, -1, 1, 1, -1, -1, -1, -1, -1, -1, -1, -1, 1, -1, 1, 1, 1, 1, -1, 1, -1, -1, 1, -1, -1, -1, 1, -1, 1, 1, -1, 1, -1, -1, 1, -1, 1, -1, -1, 1, 1, 1, -1, -1, -1, -1, -1, -1, -1, 1, 1, -1, -1, -1, -1, 1, -1, 1, 1, -1, -1, 1, -1, -1, 1, -1, 1, 1, 1, -1, -1, -1, 1, 1, -1, -1, 1, -1, 1, -1, 1, -1, 1, -1, 1, -1, 1, -1, 1, -1, -1, 1, 1, 1, 1, -1, -1, 1, 1, -1, -1, 1, 1, -1, 1, 1, -1, -1, -1, 1, -1, 1, -1, 1, -1, 1, 1, -1, -1, 1, 1, -1, 1, -1, 1, 1, -1, 1, 1, -1, 1, 1, -1, 1, -1, -1, -1, 1, 1, 1, -1, 1, 1, 1, -1, 1, -1, -1, 1, -1, 1, 1, 1, -1, 1, 1, 1, -1, 1, 1, 1, 1, -1, -1, 1, 1, -1, 1, 1, -1, 1, -1, 1, -1, -1, 1, 1, 1
BQP_DATA, 4046, 18850, -8999.000000, -11367.000000, -25636.000000, -28004.000000, 8192.039289, 10167, 2221
